c random cnf
p cnf 50 50
31 38 0
-12 28 0
-35 42 0
-8 13 0
4 -19 0
-9 -31 0
-8 42 0
-15 42 0
8 40 0
19 30 0
9 42 0
39 46 0
41 -45 0
-23 -36 0
-19 35 0
29 46 0
16 -19 0
32 -49 0
-32 36 0
-15 -18 0
-5 -29 0
15 -48 0
12 -36 0
1 -50 0
-16 -49 0
-1 3 0
23 24 0
-14 -46 0
26 35 0
-7 13 0
15 39 0
13 19 0
-4 17 0
10 20 0
31 40 0
-18 37 0
17 29 0
1 -15 0
34 38 0
-36 -37 0
3 -46 0
-8 -44 0
11 -22 0
-6 29 0
18 -44 0
-32 -37 0
14 34 0
27 49 0
-20 -40 0
23 48 0
